min: c;

c = 3.40595819883718 * u1_t7_h4 + 3.37506203708276 * u1_t7_h5 + 4.12545733376753 * u1_t5_h6 + 4.12545733376753 * u1_t7_h6 + 3.59536372648399 * u1_t5_h7 + 3.59536372648399 * u1_t7_h7 + 3.59536372648399 * u1_t9_h7 + 5.13690163626308 * u1_t5_h8 + 5.13690163626308 * u1_t7_h8 + 5.13690163626308 * u1_t9_h8 + 5.13690163626308 * u1_t10_h8 + 4.58661517473723 * u1_t5_h9 + 4.58661517473723 * u1_t7_h9 + 4.58661517473723 * u1_t9_h9 + 4.58661517473723 * u1_t10_h9 + 5.26733445077691 * u1_t5_h10 + 5.26733445077691 * u1_t7_h10 + 5.26733445077691 * u1_t9_h10 + 5.26733445077691 * u1_t10_h10 + 3.84707398866641 * u1_t5_h11 + 3.84707398866641 * u1_t9_h11 + 3.84707398866641 * u1_t10_h11 + 5.85928754393797 * u1_t4_h12 + 5.85928754393797 * u1_t5_h12 + 5.85928754393797 * u1_t8_h12 + 5.85928754393797 * u1_t9_h12 + 5.85928754393797 * u1_t10_h12 + 4.89568129894184 * u1_t4_h13 + 4.89568129894184 * u1_t8_h13 + 4.89568129894184 * u1_t9_h13 + 4.89568129894184 * u1_t10_h13 + 5.76543726354101 * u1_t4_h14 + 5.76543726354101 * u1_t8_h14 + 5.76543726354101 * u1_t9_h14 + 5.76543726354101 * u1_t10_h14 + 6.48367519103213 * u1_t4_h15 + 6.48367519103213 * u1_t8_h15 + 5.56485888588049 * u1_t4_h16 + 5.56485888588049 * u1_t8_h16 + 6.58058733293443 * u1_t4_h17 + 6.58058733293443 * u1_t8_h17 + 6.28484346865736 * u1_t2_h18 + 6.28484346865736 * u1_t4_h18 + 6.28484346865736 * u1_t6_h18 + 6.28484346865736 * u1_t8_h18 + 5.34122791467953 * u1_t2_h19 + 5.34122791467953 * u1_t3_h19 + 5.34122791467953 * u1_t4_h19 + 5.34122791467953 * u1_t6_h19 + 5.93804295345015 * u1_t1_h20 + 5.93804295345015 * u1_t2_h20 + 5.93804295345015 * u1_t3_h20 + 5.93804295345015 * u1_t4_h20 + 5.93804295345015 * u1_t6_h20 + 5.03538266892905 * u1_t1_h21 + 5.03538266892905 * u1_t2_h21 + 5.03538266892905 * u1_t3_h21 + 5.40466648400341 * u1_t1_h22 + 5.40466648400341 * u1_t2_h22 + 5.0075062515716 * u1_t1_h23 + 5.0075062515716 * u1_t2_h23;
0 <= u1_t1_h20 <= 1;
0 <= u1_t1_h21 <= 1;
0 <= u1_t1_h22 <= 1;
0 <= u1_t1_h23 <= 1;
u1_t1_h20 + u1_t1_h21 + u1_t1_h22 + u1_t1_h23 = 1;
0 <= u1_t2_h18 <= 1;
0 <= u1_t2_h19 <= 1;
0 <= u1_t2_h20 <= 1;
0 <= u1_t2_h21 <= 1;
0 <= u1_t2_h22 <= 1;
0 <= u1_t2_h23 <= 1;
u1_t2_h18 + u1_t2_h19 + u1_t2_h20 + u1_t2_h21 + u1_t2_h22 + u1_t2_h23 = 2;
0 <= u1_t3_h19 <= 1;
0 <= u1_t3_h20 <= 1;
0 <= u1_t3_h21 <= 1;
u1_t3_h19 + u1_t3_h20 + u1_t3_h21 = 1;
0 <= u1_t4_h12 <= 1;
0 <= u1_t4_h13 <= 1;
0 <= u1_t4_h14 <= 1;
0 <= u1_t4_h15 <= 1;
0 <= u1_t4_h16 <= 1;
0 <= u1_t4_h17 <= 1;
0 <= u1_t4_h18 <= 1;
0 <= u1_t4_h19 <= 1;
0 <= u1_t4_h20 <= 1;
u1_t4_h12 + u1_t4_h13 + u1_t4_h14 + u1_t4_h15 + u1_t4_h16 + u1_t4_h17 + u1_t4_h18 + u1_t4_h19 + u1_t4_h20 = 3;
0 <= u1_t5_h6 <= 1;
0 <= u1_t5_h7 <= 1;
0 <= u1_t5_h8 <= 1;
0 <= u1_t5_h9 <= 1;
0 <= u1_t5_h10 <= 1;
0 <= u1_t5_h11 <= 1;
0 <= u1_t5_h12 <= 1;
u1_t5_h6 + u1_t5_h7 + u1_t5_h8 + u1_t5_h9 + u1_t5_h10 + u1_t5_h11 + u1_t5_h12 = 3;
0 <= u1_t6_h18 <= 1;
0 <= u1_t6_h19 <= 1;
0 <= u1_t6_h20 <= 1;
u1_t6_h18 + u1_t6_h19 + u1_t6_h20 = 2;
0 <= u1_t7_h4 <= 1;
0 <= u1_t7_h5 <= 1;
0 <= u1_t7_h6 <= 1;
0 <= u1_t7_h7 <= 1;
0 <= u1_t7_h8 <= 1;
0 <= u1_t7_h9 <= 1;
0 <= u1_t7_h10 <= 1;
u1_t7_h4 + u1_t7_h5 + u1_t7_h6 + u1_t7_h7 + u1_t7_h8 + u1_t7_h9 + u1_t7_h10 = 2;
0 <= u1_t8_h12 <= 1;
0 <= u1_t8_h13 <= 1;
0 <= u1_t8_h14 <= 1;
0 <= u1_t8_h15 <= 1;
0 <= u1_t8_h16 <= 1;
0 <= u1_t8_h17 <= 1;
0 <= u1_t8_h18 <= 1;
u1_t8_h12 + u1_t8_h13 + u1_t8_h14 + u1_t8_h15 + u1_t8_h16 + u1_t8_h17 + u1_t8_h18 = 2;
0 <= u1_t9_h7 <= 1;
0 <= u1_t9_h8 <= 1;
0 <= u1_t9_h9 <= 1;
0 <= u1_t9_h10 <= 1;
0 <= u1_t9_h11 <= 1;
0 <= u1_t9_h12 <= 1;
0 <= u1_t9_h13 <= 1;
0 <= u1_t9_h14 <= 1;
u1_t9_h7 + u1_t9_h8 + u1_t9_h9 + u1_t9_h10 + u1_t9_h11 + u1_t9_h12 + u1_t9_h13 + u1_t9_h14 = 3;
0 <= u1_t10_h8 <= 1;
0 <= u1_t10_h9 <= 1;
0 <= u1_t10_h10 <= 1;
0 <= u1_t10_h11 <= 1;
0 <= u1_t10_h12 <= 1;
0 <= u1_t10_h13 <= 1;
0 <= u1_t10_h14 <= 1;
u1_t10_h8 + u1_t10_h9 + u1_t10_h10 + u1_t10_h11 + u1_t10_h12 + u1_t10_h13 + u1_t10_h14 = 3;
